32      4       
20      18      20      18      
0       0       0       0       0       3       2       3       4       
10      10      14      0       0       3       8       6       5       
5       0       3       0       18      2       6       5       
4       20      0       20      0       2       8       5       
8       12      18      0       0       1       7       
7       0       0       8       18      1       7       
4       4       0       0       18      2       10      9       
5       8       0       0       1       2       10      9       
4       0       18      0       11      3       14      13      11      
5       20      18      0       0       3       14      12      11      
4       15      18      0       0       2       16      15      
10      0       18      20      0       2       16      15      
6       0       0       20      18      2       16      15      
3       15      0       0       9       1       15      
7       0       0       1       16      2       20      17      
2       16      0       20      0       2       20      18      
7       20      0       17      0       1       18      
3       0       0       19      18      1       19      
5       0       1       5       0       2       22      21      
6       19      0       9       0       1       21      
3       0       18      20      0       2       24      23      
1       0       0       11      5       1       23      
1       14      0       0       18      2       28      26      
1       0       9       0       18      1       25      
7       12      18      0       0       2       28      27      
6       20      0       0       13      1       27      
2       0       14      15      0       2       30      29      
5       0       12      0       15      2       30      29      
2       20      0       20      0       1       31      
8       0       10      0       7       1       31      
2       0       14      20      0       1       32      
0       0       0       0       0       0       
